
--- Job RCPSP1.gms Start 03/07/15 14:49:11 24.3.3 r48116 WIN-VS8 x86 32bit/MS Windows
GAMS 24.3.3   Copyright (C) 1987-2014 GAMS Development. All rights reserved
Licensee: Kurslizenz                                     S140303/0001AW-GEN
          Leibniz University Hannover, Lehrstuhl fuer ProduktionswirtDC6657
          License for teaching and research at degree granting institutions
--- Starting compilation
--- RCPSP1.gms(34) 2 Mb
--- .RCPSP1_Input.inc(67) 3 Mb
--- RCPSP1.gms(160) 3 Mb
--- Starting execution: elapsed 0:00:00.005
--- RCPSP1.gms(179) 4 Mb
--- Generating MIP model RCPSP1
--- RCPSP1.gms(196) 4 Mb
---   58 rows  30 columns  136 non-zeroes
---   29 discrete-columns
--- Executing CPLEX: elapsed 0:00:00.329

IBM ILOG CPLEX   24.3.3 r48116 Released Sep 19, 2014 VS8 x86 32bit/MS Windows 
Cplex 12.6.0.1

Reading data...
Starting Cplex...
Space for names approximately 0.00 Mb
Use option 'names no' to turn use of names off
Found incumbent of value 15.000000 after -0.00 sec. (0.01 ticks)
Tried aggregator 2 times.
MIP Presolve eliminated 55 rows and 23 columns.
MIP Presolve modified 48 coefficients.
Aggregator did 1 substitutions.
Reduced MIP has 2 rows, 6 columns, and 11 nonzeros.
Reduced MIP has 6 binaries, 0 generals, 0 SOSs, and 0 indicators.
Presolve time = 0.00 sec. (0.10 ticks)
Probing time = 0.00 sec. (0.00 ticks)
Tried aggregator 1 time.
MIP Presolve eliminated 2 rows and 6 columns.
MIP Presolve modified 4 coefficients.
All rows and columns eliminated.
Presolve time = 0.00 sec. (0.01 ticks)

Root node processing (before b&c):
  Real time             =   -0.00 sec. (0.13 ticks)
Sequential b&c:
  Real time             =    0.00 sec. (0.00 ticks)
                          ------------
Total (root+branch&cut) =   -0.00 sec. (0.13 ticks)
MIP status(101): integer optimal solution
Cplex Time: 0.06sec (det. 0.13 ticks)
Fixing integer variables, and solving final LP...
Tried aggregator 1 time.
LP Presolve eliminated 58 rows and 30 columns.
All rows and columns eliminated.
Presolve time = 0.00 sec. (0.02 ticks)
Fixed MIP status(1): optimal
Cplex Time: 0.00sec (det. 0.03 ticks)

Proven optimal solution.

MIP Solution:           15.000000    (0 iterations, 0 nodes)
Final Solve:            15.000000    (0 iterations)

Best possible:          15.000000
Absolute gap:            0.000000
Relative gap:            0.000000

--- Restarting execution
--- RCPSP1.gms(196) 2 Mb
--- Reading solution for model RCPSP1
--- Executing after solve: elapsed 0:00:00.532
--- RCPSP1.gms(226) 3 Mb
--- Putfile outputfile1 C:\Sites\as-rcpsp\RCPSP1_solution_zeit.txt
--- Putfile outputfile2 C:\Sites\as-rcpsp\RCPSP1_solution_x.txt
--- Putfile outputfile3 C:\Sites\as-rcpsp\RCPSP1_solution_zw.txt
*** Status: Normal completion
--- Job RCPSP1.gms Stop 03/07/15 14:49:12 elapsed 0:00:00.538
